50
400
277
277
276
273
267
266
265
263
256
250
249
248
248
247
244
241
233
232
228
224
203
198
196
196
195
194
194
192
184
180
176
172
172
172
165
164
143
137
131
129
128
128
116
109
108
107
106
95
86
82
